
--- Job SupplierSelection.gms Start 02/20/23 09:38:30 42.2.0 ef14ea53 WEX-WEI x86 64bit/MS Windows
--- Applying:
    C:\GAMS\42\gmsprmNT.txt
    C:\Users\erwin\Documents\GAMS\gamsconfig.yaml
--- GAMS Parameters defined
    MIP CPLEX
    Input C:\projects\OptimizationModels\SupplierSelection\SupplierSelection.gms
    PageWidth 130
    PageSize 0
    ScrDir C:\projects\OptimizationModels\SupplierSelection\225a\
    SysDir C:\GAMS\42\
    LogOption 3
    ErrMsg 1
    ErrorLog 99
    IDE 1
    LstTitleLeftAligned 1
Licensee: Eval License                                   G221205|0002CO-GEN
          Amsterdam Optimization Modeling Group,                     DCE378
          C:\Users\erwin\Documents\GAMS\gamslice.txt
          License Admin: Erwin Kalvelagen, info@amsterdamoptimization.com  
          Evaluation license: Not for commercial or production use
Processor information: 1 socket(s), 8 core(s), and 16 thread(s) available
GAMS 42.2.0   Copyright (C) 1987-2023 GAMS Development. All rights reserved
--- Starting compilation
--- SupplierSelection.gms(102) 3 Mb
--- Starting execution: elapsed 0:00:00.006
--- SupplierSelection.gms(99) 4 Mb
--- Generating MIP model m
--- SupplierSelection.gms(100) 4 Mb
---   551 rows  511 columns  1,869 non-zeroes
---   510 discrete-columns
--- Range statistics (absolute non-zero finite values)
--- RHS       [min, max] : [ 1.000E+00, 1.000E+01] - Zero values observed as well
--- Bound     [min, max] : [ 1.000E+00, 7.000E+00] - Zero values observed as well
--- Matrix    [min, max] : [ 1.000E+00, 3.674E+01]
--- Executing CPLEX (Solvelink=2): elapsed 0:00:00.011

IBM ILOG CPLEX   42.2.0 ef14ea53 Feb 16, 2023          WEI x86 64bit/MS Window

--- GAMS/Cplex Link licensed for continuous and discrete problems.
--- GMO setup time: 0.00s
--- Space for names approximately 0.03 Mb
--- Use option 'names no' to turn use of names off
--- GMO memory 0.62 Mb (peak 0.63 Mb)
--- Dictionary memory 0.00 Mb
--- Cplex 22.1.1.0 link memory 0.02 Mb (peak 0.08 Mb)
--- Starting Cplex

Version identifier: 22.1.1.0 | 2022-11-27 | 9160aff4d
CPXPARAM_Advance                                 0
CPXPARAM_MIP_Display                             4
CPXPARAM_MIP_Pool_Capacity                       0
CPXPARAM_MIP_Tolerances_AbsMIPGap                0
Generic callback                                 0x50
Found incumbent of value 915.920809 after 0.00 sec. (0.06 ticks)
Tried aggregator 1 time.
MIP Presolve eliminated 71 rows and 72 columns.
Reduced MIP has 479 rows, 439 columns, and 1287 nonzeros.
Reduced MIP has 89 binaries, 350 generals, 0 SOSs, and 0 indicators.
Presolve time = 0.00 sec. (0.86 ticks)
Probing time = 0.00 sec. (0.20 ticks)
Tried aggregator 1 time.
Reduced MIP has 479 rows, 439 columns, and 1287 nonzeros.
Reduced MIP has 89 binaries, 350 generals, 0 SOSs, and 0 indicators.
Presolve time = 0.00 sec. (0.83 ticks)
Probing time = 0.00 sec. (0.20 ticks)
Clique table members: 81.
MIP emphasis: balance optimality and feasibility.
MIP search method: dynamic search.
Parallel mode: deterministic, using up to 16 threads.
Parallel mode: deterministic, using up to 3 threads for parallel tasks at root LP.
Tried aggregator 1 time.
No LP presolve or aggregator reductions.
Presolve time = 0.00 sec. (0.23 ticks)
Initializing dual steep norms . . .

Iteration log . . .
Iteration:     1   Dual objective     =           433.633117
Iteration:    72   Dual objective     =           577.739440
Root relaxation solution time = 0.00 sec. (1.41 ticks)

        Nodes                                         Cuts/
   Node  Left     Objective  IInf  Best Integer    Best Bound    ItCnt     Gap

*     0+    0                          915.9208        0.0000           100.00%
Found incumbent of value 915.920809 after 0.02 sec. (4.38 ticks)
*     0+    0                          726.0523        0.0000           100.00%
Found incumbent of value 726.052304 after 0.02 sec. (4.38 ticks)
*     0+    0                          681.0315        0.0000           100.00%
Found incumbent of value 681.031478 after 0.02 sec. (4.39 ticks)
*     0+    0                          678.2723        0.0000           100.00%
Found incumbent of value 678.272297 after 0.02 sec. (4.39 ticks)
*     0+    0                          661.5092        0.0000           100.00%
Found incumbent of value 661.509183 after 0.02 sec. (4.39 ticks)
*     0+    0                          661.3263        0.0000           100.00%
Found incumbent of value 661.326325 after 0.02 sec. (4.39 ticks)
      0     0      592.9163    91      661.3263      592.9163      117   10.34%
*     0+    0                          612.3323      592.9163             3.17%
Found incumbent of value 612.332252 after 0.02 sec. (5.45 ticks)
*     0     0      integral     0      598.1315      Cuts: 56      154    0.00%
Found incumbent of value 598.131517 after 0.02 sec. (11.83 ticks)
      0     0        cutoff            598.1315                    154    0.00%
Elapsed time = 0.03 sec. (11.85 ticks, tree = 0.01 MB)

Flow cuts applied:  25
Mixed integer rounding cuts applied:  18
Zero-half cuts applied:  6

Root node processing (before b&c):
  Real time             =    0.03 sec. (11.87 ticks)
Parallel b&c, 16 threads:
  Real time             =    0.00 sec. (0.00 ticks)
  Sync time (average)   =    0.00 sec.
  Wait time (average)   =    0.00 sec.
                          ------------
Total (root+branch&cut) =    0.03 sec. (11.87 ticks)

--- MIP status (101): integer optimal solution.
--- Cplex Time: 0.05sec (det. 11.87 ticks)

--- Fixing integer variables and solving final LP...

Version identifier: 22.1.1.0 | 2022-11-27 | 9160aff4d
CPXPARAM_Advance                                 2
CPXPARAM_MIP_Display                             4
CPXPARAM_MIP_Pool_Capacity                       0
CPXPARAM_MIP_Tolerances_AbsMIPGap                0
Tried aggregator 1 time.
LP Presolve eliminated 550 rows and 511 columns.
All rows and columns eliminated.
Presolve time = 0.00 sec. (0.25 ticks)

--- Fixed MIP status (1): optimal.
--- Cplex Time: 0.00sec (det. 0.42 ticks)


Proven optimal solution
MIP Solution:          598.131517    (154 iterations, 0 nodes)
Final Solve:           598.131517    (0 iterations)

Best possible:         598.131517
Absolute gap:            0.000000
Relative gap:            0.000000

--- Reading solution for model m
--- Executing after solve: elapsed 0:00:00.075
--- SupplierSelection.gms(102) 4 Mb
*** Status: Normal completion
--- Job SupplierSelection.gms Stop 02/20/23 09:38:30 elapsed 0:00:00.075
